* ENCODING=ISO-8859-1
NAME          CPLEX
ROWS
 N  obj1    
 G  c1      
 G  c2      
 G  c3      
 G  c4      
 G  c5      
 G  c6      
 G  c7      
 G  c8      
 G  c9      
 G  c10     
 G  c11     
 G  c12     
 G  c13     
 G  c14     
 G  c15     
 G  c16     
 G  c17     
 G  c18     
 G  c19     
 G  c20     
 G  c21     
 G  c22     
 G  c23     
 G  c24     
 G  c25     
 G  c26     
 G  c27     
 G  c28     
 G  c29     
 G  c30     
 G  c31     
 G  c32     
 G  c33     
 G  c34     
 G  c35     
 G  c36     
 G  c37     
 G  c38     
 G  c39     
 G  c40     
COLUMNS
    MARK0000  'MARKER'                 'INTORG'
    x1        obj1                            1
    x1        c33                           219
    x1        c37                           485
    x2        obj1                            1
    x2        c2                            565
    x2        c4                            362
    x2        c13                           554
    x2        c16                           272
    x2        c24                           296
    x2        c25                           237
    x2        c28                           471
    x2        c30                           634
    x2        c38                           693
    x3        obj1                            1
    x3        c19                           584
    x4        obj1                            1
    x4        c14                           975
    x4        c17                           596
    x5        obj1                            1
    x5        c35                           246
    x5        c37                           688
    x5        c40                           422
    x6        obj1                            1
    x6        c30                           270
    x6        c31                           307
    x6        c37                           759
    x7        obj1                            1
    x7        c5                            613
    x8        obj1                            1
    x8        c2                            327
    x8        c3                            483
    x8        c31                           229
    x9        obj1                            1
    x9        c1                            837
    x9        c12                           683
    x9        c25                           157
    x9        c34                           784
    x9        c40                           531
    x10       obj1                            1
    x10       c3                            402
    x10       c8                            984
    x10       c34                           115
    x11       obj1                            1
    x11       c8                            346
    x11       c10                           628
    x11       c24                           286
    x11       c39                           734
    x12       obj1                            1
    x12       c6                            748
    x12       c10                           164
    x12       c12                           634
    x12       c14                           640
    x12       c20                           533
    x12       c21                           502
    x12       c27                           362
    x12       c30                           929
    x12       c33                           733
    x13       obj1                            1
    x13       c2                            869
    x13       c6                            179
    x13       c36                           186
    x14       obj1                            1
    x14       c2                            297
    x14       c6                            876
    x14       c17                           178
    x14       c18                           549
    x14       c23                           651
    x14       c25                           392
    x14       c26                           897
    x14       c32                           970
    x14       c33                           731
    x14       c38                           726
    x15       obj1                            1
    x15       c3                            226
    x15       c11                           797
    x15       c17                           469
    x15       c22                           863
    x15       c23                           684
    x15       c31                           747
    x15       c35                           751
    x15       c38                           713
    x16       obj1                            1
    x16       c1                            704
    x16       c6                            698
    x16       c8                            411
    x16       c19                           383
    x16       c29                           621
    x16       c30                           355
    x17       obj1                            1
    x17       c8                            296
    x17       c15                           219
    x17       c34                           618
    x18       obj1                            1
    x18       c12                           431
    x18       c29                           727
    x18       c40                           949
    x19       obj1                            1
    x19       c1                            448
    x19       c4                            303
    x19       c13                           405
    x19       c23                           766
    x19       c24                           349
    x19       c26                           306
    x19       c36                           898
    x19       c39                           956
    x20       obj1                            1
    x20       c4                            729
    x20       c7                            550
    x20       c20                           647
    x20       c22                           318
    x20       c31                           792
    x21       obj1                            1
    x21       c1                            583
    x21       c4                            187
    x21       c11                           357
    x21       c13                           283
    x21       c19                           862
    x22       obj1                            1
    x22       c7                            782
    x22       c14                           902
    x23       obj1                            1
    x23       c7                            355
    x23       c20                           983
    x23       c23                           192
    x23       c27                           377
    x24       obj1                            1
    x24       c15                           878
    x24       c22                           413
    x24       c25                           235
    x24       c27                           613
    x25       obj1                            1
    x25       c4                            421
    x25       c19                           186
    x25       c32                           979
    x26       obj1                            1
    x26       c6                            744
    x26       c14                           377
    x26       c24                           339
    x27       obj1                            1
    x27       c5                            973
    x27       c21                           161
    x27       c28                           549
    x27       c35                           713
    x28       obj1                            1
    x28       c8                            456
    x28       c19                           379
    x29       obj1                            1
    x29       c8                            914
    x29       c14                           950
    x29       c22                           951
    x29       c36                           650
    x30       obj1                            1
    x30       c13                           312
    x30       c17                           131
    x30       c29                           286
    x31       obj1                            1
    x31       c6                            222
    x31       c8                            852
    x31       c19                           743
    x32       obj1                            1
    x32       c3                            588
    x32       c14                           861
    x32       c20                           682
    x33       obj1                            1
    x33       c4                            788
    x33       c19                           310
    x33       c23                           930
    x33       c25                           590
    x33       c32                           119
    x34       obj1                            1
    x34       c3                            885
    x34       c23                           399
    x34       c27                           601
    x34       c38                           472
    x35       obj1                            1
    x35       c17                           266
    x35       c29                           408
    x36       obj1                            1
    x36       c5                            128
    x36       c16                           427
    x36       c21                           560
    x36       c22                           345
    x36       c29                           774
    x37       obj1                            1
    x37       c8                            498
    x37       c39                           926
    x38       obj1                            1
    x38       c14                           924
    x38       c28                           976
    x39       obj1                            1
    x39       c1                            195
    x39       c17                           510
    x39       c26                           587
    x39       c32                           136
    x40       obj1                            1
    x40       c14                           784
    x40       c22                           702
    x40       c24                           914
    x40       c29                           731
    x40       c30                           594
    x40       c35                           344
    x41       obj1                            1
    x41       c7                            660
    x41       c19                           864
    x41       c21                           225
    x41       c24                           425
    x41       c33                           250
    x42       obj1                            1
    x42       c3                            104
    x42       c9                            747
    x42       c16                           426
    x42       c20                           967
    x42       c36                           395
    x43       obj1                            1
    x43       c18                           361
    x43       c32                           670
    x43       c34                           576
    x44       obj1                            1
    x44       c5                            351
    x44       c9                            207
    x44       c11                           543
    x44       c16                           348
    x44       c26                           913
    x44       c33                           872
    x44       c37                           121
    x45       obj1                            1
    x45       c4                            271
    x45       c15                           631
    x45       c20                           208
    x46       obj1                            1
    x46       c4                            957
    x46       c27                           889
    x47       obj1                            1
    x47       c1                            588
    x47       c23                           601
    x47       c24                           673
    x47       c29                           589
    x47       c37                           282
    x48       obj1                            1
    x48       c4                            316
    x48       c14                           317
    x48       c24                           678
    x49       obj1                            1
    x49       c4                            214
    x49       c7                            308
    x49       c8                            676
    x49       c9                            141
    x49       c12                           782
    x49       c21                           287
    x49       c29                           147
    x49       c34                          1000
    x50       obj1                            1
    x50       c2                            848
    x50       c7                            457
    x50       c16                           633
    x50       c29                           754
    x51       obj1                            1
    x51       c1                            629
    x51       c10                           862
    x51       c15                           329
    x52       obj1                            1
    x52       c4                            565
    x53       obj1                            1
    x53       c7                            883
    x53       c21                           707
    x53       c30                           266
    x53       c35                           529
    x54       obj1                            1
    x54       c2                            765
    x54       c7                            605
    x54       c18                           327
    x54       c29                           180
    x55       obj1                            1
    x55       c40                           427
    x56       obj1                            1
    x56       c1                            121
    x56       c6                            179
    x56       c27                           646
    x57       obj1                            1
    x57       c2                            903
    x57       c9                            246
    x57       c18                           686
    x57       c23                           631
    x57       c25                           838
    x57       c40                           332
    x58       obj1                            1
    x58       c8                            593
    x58       c17                           820
    x59       obj1                            1
    x59       c28                           209
    x60       obj1                            1
    x60       c22                           391
    x60       c31                           461
    x60       c39                           900
    x61       obj1                            1
    x61       c25                           691
    x61       c27                           440
    x61       c40                           731
    x62       obj1                            1
    x62       c7                            147
    x62       c32                           457
    x62       c38                           596
    x63       obj1                            1
    x63       c15                           165
    x63       c26                           370
    x64       obj1                            1
    x64       c1                            434
    x64       c3                            768
    x64       c19                           741
    x64       c25                           787
    x64       c29                           691
    x65       obj1                            1
    x65       c7                            183
    x65       c10                           914
    x65       c12                           523
    x65       c38                           390
    x66       obj1                            1
    x66       c1                            597
    x66       c3                            545
    x66       c32                           131
    x66       c40                           732
    x67       obj1                            1
    x67       c1                            450
    x67       c15                           705
    x67       c19                           348
    x67       c22                           367
    x67       c23                           933
    x67       c36                           453
    x68       obj1                            1
    x68       c8                            896
    x68       c16                           889
    x68       c25                           990
    x68       c32                           737
    x68       c38                           967
    x69       obj1                            1
    x69       c6                            127
    x69       c25                           684
    x69       c30                           968
    x70       obj1                            1
    x70       c20                           258
    x70       c21                           454
    x71       obj1                            1
    x71       c2                            508
    x71       c3                            263
    x71       c14                           735
    x72       obj1                            1
    x72       c1                            393
    x72       c10                           315
    x72       c11                           575
    x72       c20                           534
    x72       c21                           626
    x72       c36                           586
    x73       obj1                            1
    x73       c3                            984
    x73       c5                            356
    x73       c17                           431
    x73       c22                           808
    x73       c30                           449
    x73       c32                           649
    x73       c33                           923
    x74       obj1                            1
    x74       c11                           859
    x74       c32                           776
    x75       obj1                            1
    x75       c21                           378
    x75       c25                           778
    x76       obj1                            1
    x76       c17                           676
    x76       c32                           868
    x77       obj1                            1
    x77       c6                            264
    x77       c7                            837
    x77       c17                           441
    x77       c18                           144
    x77       c22                           103
    x77       c23                           524
    x77       c29                           768
    x77       c40                           481
    x78       obj1                            1
    x78       c22                           106
    x79       obj1                            1
    x79       c3                            356
    x79       c4                            287
    x79       c6                            826
    x79       c22                           595
    x79       c30                           923
    x79       c32                           966
    x80       obj1                            1
    x80       c18                           794
    x80       c19                           344
    x80       c20                           415
    x80       c24                           303
    x80       c28                           886
    MARK0001  'MARKER'                 'INTEND'
RHS
    rhs       c1                           2990
    rhs       c2                           2541
    rhs       c3                           2802
    rhs       c4                           2700
    rhs       c5                           1211
    rhs       c6                           2432
    rhs       c7                           2884
    rhs       c8                           3461
    rhs       c9                            671
    rhs       c10                          1442
    rhs       c11                          1566
    rhs       c12                          1527
    rhs       c13                           777
    rhs       c14                          3733
    rhs       c15                          1464
    rhs       c16                          1498
    rhs       c17                          2259
    rhs       c18                          1431
    rhs       c19                          2872
    rhs       c20                          2614
    rhs       c21                          1950
    rhs       c22                          2981
    rhs       c23                          3156
    rhs       c24                          2132
    rhs       c25                          3190
    rhs       c26                          1537
    rhs       c27                          1964
    rhs       c28                          1546
    rhs       c29                          3338
    rhs       c30                          2694
    rhs       c31                          1268
    rhs       c32                          3729
    rhs       c33                          1864
    rhs       c34                          1547
    rhs       c35                          1292
    rhs       c36                          1584
    rhs       c37                          1168
    rhs       c38                          2279
    rhs       c39                          1758
    rhs       c40                          2303
BOUNDS
 LI bnd       x1        0
 LI bnd       x2        0
 LI bnd       x3        0
 LI bnd       x4        0
 LI bnd       x5        0
 LI bnd       x6        0
 LI bnd       x7        0
 LI bnd       x8        0
 LI bnd       x9        0
 LI bnd       x10       0
 LI bnd       x11       0
 LI bnd       x12       0
 LI bnd       x13       0
 LI bnd       x14       0
 LI bnd       x15       0
 LI bnd       x16       0
 LI bnd       x17       0
 LI bnd       x18       0
 LI bnd       x19       0
 LI bnd       x20       0
 LI bnd       x21       0
 LI bnd       x22       0
 LI bnd       x23       0
 LI bnd       x24       0
 LI bnd       x25       0
 LI bnd       x26       0
 LI bnd       x27       0
 LI bnd       x28       0
 LI bnd       x29       0
 LI bnd       x30       0
 LI bnd       x31       0
 LI bnd       x32       0
 LI bnd       x33       0
 LI bnd       x34       0
 LI bnd       x35       0
 LI bnd       x36       0
 LI bnd       x37       0
 LI bnd       x38       0
 LI bnd       x39       0
 LI bnd       x40       0
 LI bnd       x41       0
 LI bnd       x42       0
 LI bnd       x43       0
 LI bnd       x44       0
 LI bnd       x45       0
 LI bnd       x46       0
 LI bnd       x47       0
 LI bnd       x48       0
 LI bnd       x49       0
 LI bnd       x50       0
 LI bnd       x51       0
 LI bnd       x52       0
 LI bnd       x53       0
 LI bnd       x54       0
 LI bnd       x55       0
 LI bnd       x56       0
 LI bnd       x57       0
 LI bnd       x58       0
 LI bnd       x59       0
 LI bnd       x60       0
 LI bnd       x61       0
 LI bnd       x62       0
 LI bnd       x63       0
 LI bnd       x64       0
 LI bnd       x65       0
 LI bnd       x66       0
 LI bnd       x67       0
 LI bnd       x68       0
 LI bnd       x69       0
 LI bnd       x70       0
 LI bnd       x71       0
 LI bnd       x72       0
 LI bnd       x73       0
 LI bnd       x74       0
 LI bnd       x75       0
 LI bnd       x76       0
 LI bnd       x77       0
 LI bnd       x78       0
 LI bnd       x79       0
 LI bnd       x80       0
ENDATA
